p tw 92 98
1 2
2 13
3 4
4 5
5 6
6 7
7 8
7 11
8 9
9 10
10 11
10 14
11 12
12 91
13 24
14 15
15 16
16 17
17 18
18 19
19 20
20 21
21 22
21 25
22 23
23 91
24 35
25 26
26 27
27 28
28 29
29 30
30 31
31 32
32 33
33 34
34 36
35 46
36 37
37 38
38 39
39 40
39 50
40 41
41 42
42 43
43 44
44 45
45 47
46 57
47 48
48 49
49 36
50 51
51 52
52 53
53 54
54 55
55 56
56 58
57 68
57 3
58 59
58 69
59 60
60 61
61 62
62 63
63 64
64 65
65 66
66 67
67 54
68 79
69 70
70 71
71 72
72 73
73 74
74 75
75 76
76 77
77 78
78 80
79 90
79 6
80 81
81 82
82 83
83 84
84 85
85 86
86 3
87 88
88 89
89 91
90 87
91 92
